\ LP format - for model browsing. Use MPS format to capture full model detail.
Minimize
  0 B24(0) + 0 B25(0) + 0 B26(0) + 0 B27(0) + 0 B28(0) + 0 B29(0) + 0 B31(0)
   + 0 B32(0) + 0 B33(0) + 0 B34(0) + 0 B35(0) + 0 B36(0) + 0 B38(0)
   + 0 B39(0) + 0 B40(0) + 0 B41(0) + 0 B42(0) + 0 B43(0) + 0 B44(0)
   + 0 B45(0) + 0 B46(0) + 0 B47(0) + 0 B48(0) + 0 B49(0) + 0 B50(0)
   + 0 B51(0) + 0 B52(0) + 0 B53(0) + 0 B54(0) + 0 B55(0) + 0 B57(0)
   + 0 B59(0) + 0 B60(0) + 0 B61(0) + 0 B62(0) + 0 B64(0) + 0 B65(0)
   + 0 B66(0) + 0 B68(0) + 0 B70(0) + 0 B71(0) + 0 B72(0) + 0 B73(0)
   + 0 B74(0) + 0 B75(0) + 0 B76(0) + 0 B77(0) + 0 B78(0) + 0 B80(0)
   + 0 B81(0) + 0 B82(0) + 0 B84(0) + 0 B85(0) + 0 B86(0) + 0 B87(0)
   + 0 B88(0) + 0 B90(0) + 0 B91(0) + 0 B92(0) + 0 B93(0) + 0 B95(0)
   + 0 B96(0) + 0 B97(0) + 0 B98(0) + 0 B99(0) + 0 B100(0) + 0 B102(0)
   + 0 B103(0) + 0 B104(0) + 0 B105(0) + 0 B106(0) + 0 B107(0) + 0 B109(0)
   + 0 B110(0) + 0 B111(0) + 0 B113(0) + 0 B114(0) + 0 B115(0) + 0 B117(0)
   + 0 B118(0) + 0 B119(0) + 0 B120(0) + 0 B121(0) + 0 B122(0) + 0 B123(0)
   + 0 B124(0) + 0 B125(0) + 0 B126(0) + 0 B127(0) + 0 B128(0) + 0 B130(0)
   + 0 B131(0) + 0 B132(0) + 0 B133(0) + 0 B135(0) + 0 B136(0) + 0 B137(0)
   + 0 B139(0) + 0 B140(0) + 0 B141(0) + 0 B142(0) + 0 B144(0) + 0 B145(0)
   + 0 B146(0) + 0 B147(0) + 0 B148(0) + 0 B149(0) + 0 B150(0) + 0 B151(0)
   + 0 B152(0) + 0 B153(0) + 0 B154(0) + 0 B155(0) + 0 B157(0) + 0 B158(0)
   + 0 B159(0) + 0 B161(0) + 0 B162(0) + 0 B163(0) + 0 B165(0) + 0 B166(0)
   + 0 B167(0) + 0 B168(0) + 0 B169(0) + 0 B170(0) + 0 B171(0) + 0 B172(0)
   + 0 B173(0) + 0 B174(0) + 0 B175(0) + 0 B176(0) + 0 B177(0) + 0 B178(0)
   + 0 B179(0) + 0 B180(0) + 0 B182(0) + 0 B183(0) + 0 B184(0) + 0 B185(0)
   + 0 B186(0) + 0 B187(0) + 0 B188(0) + 0 B189(0) + 0 B190(0) + 0 B191(0)
   + 0 B192(0) + 0 B193(0) + 0 B194(0) + 0 B195(0) + 0 B196(0) + 0 B197(0)
   + 0 B198(0) + 0 B199(0) + 0 B200(0) + 0 B201(0) + 0 B202(0) + 0 B204(0)
   + 0 B205(0) + 0 B206(0) + 0 B207(0) + 0 B208(0) + 0 B210(0) + 0 B211(0)
   + 0 B212(0) + 0 B213(0) + 0 B215(0) + 0 B216(0) + 0 B217(0) + 0 B218(0)
   + 0 B219(0) + 0 B220(0) + 0 B221(0) + 0 B222(0) + 0 B223(0) + 0 B224(0)
   + 0 B225(0) + 0 B227(0) + 0 B228(0) + 0 B229(0) + 0 B230(0) + 0 B232(0)
   + 0 B233(0) + 0 B234(0) + 0 B236(0) + 0 B238(0) + 0 B239(0) + 0 B240(0)
   + 0 B241(0) + 0 B242(0) + 0 B243(0) + 0 B244(0) + 0 B245(0) + 0 B246(0)
   + 0 B247(0) + 0 B248(0) + 0 B249(0) + 0 B250(0) + 0 B251(0) + 0 B252(0)
   + 0 B253(0) + 0 B255(0) + 0 B256(0) + 0 B257(0) + 0 B259(0) + 0 B260(0)
   + 0 B261(0) + 0 B262(0) + 0 B264(0) + 0 B265(0) + 0 B266(0) + 0 B267(0)
   + 0 B268(0) + 0 B269(0) + 0 B270(0) + 0 B271(0) + 0 B272(0) + 0 B273(0)
   + 0 B274(0) + 0 B275(0) + 0 B276(0) + 0 B277(0) + 0 B278(0) + 0 B280(0)
   + 0 B281(0) + 0 B282(0) + 0 B284(0) + 0 B286(0) + 0 B287(0) + 0 B288(0)
   + 0 B289(0) + 0 B290(0) + 0 B291(0) + 0 B292(0) + 0 B293(0) + 0 B294(0)
   + 0 B295(0) + 0 B296(0) + 0 B297(0) + 0 B298(0) + 0 B299(0) + 0 B300(0)
   + 0 B301(0) + 0 B302(0) + 0 B303(0) + 0 B304(0) + 0 B306(0) + 0 B307(0)
   + 0 B308(0) + 0 B309(0) + 0 B311(0) + 0 B312(0) + 0 B313(0) + 0 B314(0)
   + 0 B315(0) + 0 B316(0) + 0 B317(0) + 0 B318(0) + 0 B319(0) + 0 B320(0)
   + 0 B321(0) + 0 B322(0) + 0 B323(0) + 0 B324(0) + 0 B325(0) + 0 B326(0)
   + 0 B327(0) + 0 B329(0) + 0 B330(0) + 0 B331(0) + 0 B333(0) + 0 B334(0)
   + 0 B335(0) + 0 B336(0) + 0 B337(0) + 0 B338(0) + 0 B339(0) + 0 B340(0)
   + 0 B341(0) + 0 B342(0) + 0 B343(0) + 0 B344(0) + 0 B345(0) + 0 B346(0)
   + 0 B347(0) + 0 B348(0) + 0 B349(0) + 0 B350(0) + 0 B351(0) + 0 B352(0)
   + 0 B353(0) + 0 B354(0) + 0 B355(0) + 0 B356(0) + 0 B357(0) + 0 B358(0)
   + 0 B359(0) + 0 B360(0) + 0 B361(0) + 0 B362(0) + 0 B363(0) + 0 B364(0)
   + 0 B365(0) + 0 B366(0) + 0 B367(0) + 0 B368(0) + 0 B369(0) + 0 B370(0)
   + 0 B371(0) + 0 B372(0) + 0 B373(0) + 0 B374(0) + 0 B375(0) + 0 B376(0)
   + 0 B377(0) + 0 B379(0) + 0 B380(0) + 0 B381(0) + 0 B382(0) + 0 B384(0)
   + 0 B385(0) + 0 B386(0) + 0 B387(0) + 0 B388(0) + 0 B389(0) + 0 B390(0)
   + 0 B391(0) + 0 B392(0) + 0 B393(0) + 0 B394(0) + 0 B395(0) + 0 B396(0)
   + 0 B397(0) + 0 B398(0) + 0 B399(0) + 0 B400(0) + 0 B401(0) + 0 B402(0)
   + 0 B404(0) + 0 B406(0) + 0 B407(0) + 0 B408(0) + 0 B409(0) + 0 B410(0)
   + 0 B411(0) + 0 B412(0) + 0 B413(0) + 0 B414(0) + 0 B415(0) + 0 B416(0)
   + 0 B417(0) + 0 B418(0) + 0 B419(0) + 0 B420(0) + 0 B421(0) + 0 B422(0)
   + 0 B423(0) + 0 B424(0) + 0 B425(0) + 0 B426(0) + 0 B427(0) + 0 B429(0)
   + 0 B430(0) + 0 B431(0) + 0 B432(0) + 0 B433(0) + 0 B434(0) + 0 B435(0)
   + 0 B436(0) + 0 B437(0) + 0 B438(0) + 0 B439(0) + 0 B440(0) + 0 B441(0)
   + 0 B442(0) + 0 B443(0) + 0 B444(0) + 0 B445(0) + 0 B446(0) + 0 B447(0)
   + 0 B448(0) + 0 B449(0) + 0 B450(0) + 0 B451(0) + 0 B452(0) + 0 B453(0)
   + 0 B455(0) + 0 B456(0) + 0 B457(0) + 0 B458(0) + 0 B459(0) + 0 B460(0)
   + 0 B461(0) + 0 B462(0) + 0 B463(0) + 0 B464(0) + 0 B465(0) + 0 B466(0)
   + 0 B467(0) + 0 B468(0) + 0 B469(0) + 0 B470(0) + 0 B471(0) + 0 B472(0)
   + 0 B473(0) + 0 B474(0) + 0 B475(0) + 0 B476(0) + 0 B477(0) + 0 B478(0)
   + 0 B480(0) + 0 B481(0) + 0 B482(0) + 0 B483(0) + 0 B484(0) + 0 B485(0)
   + 0 B486(0) + 0 B487(0) + 0 B488(0) + 0 B489(0) + 0 B490(0) + 0 B491(0)
   + 0 B492(0) + 0 B493(0) + 0 B494(0) + 0 B495(0) + 0 B496(0) + 0 B497(0)
   + 0 B498(0) + 0 B499(0) + 0 B500(0) + 0 B502(0) + 0 B503(0) + 0 B504(0)
   + 0 B505(0) + 0 B506(0) + 0 B507(0) + 0 B508(0) + 0 B509(0) + 0 B510(0)
   + 0 B511(0) + 0 B512(0) + 0 B513(0) + 0 B514(0) + 0 B515(0) + 0 B516(0)
   + 0 B517(0) + 0 B518(0) + 0 B519(0) + 0 B520(0) + 0 B521(0) + 0 B522(0)
   + 0 B523(0) + 0 B524(0) + 0 B525(0) + 0 B526(0) + 0 B527(0) + 0 B528(0)
   + 0 B529(0) + 0 B530(0) + 0 B531(0) + 0 B532(0) + 0 B533(0) + 0 B534(0)
   + 0 B535(0) + 0 B536(0) + 0 B537(0) + 0 B538(0) + 0 B539(0) + 0 B540(0)
   + 0 B541(0) + 0 B542(0) + 0 B543(0) + 0 B544(0) + 0 B545(0) + 0 B546(0)
   + 0 B548(0) + 0 B549(0) + 0 B550(0) + 0 B551(0) + 0 B552(0) + 0 B553(0)
   + 0 B554(0) + 0 B555(0) + 0 B556(0) + 0 B557(0) + 0 B558(0) + 0 B559(0)
   + 0 B560(0) + 0 B561(0) + 0 B562(0) + 0 B563(0) + 0 B564(0) + 0 B565(0)
   + 0 B566(0) + 0 B567(0) + 0 B568(0) + 0 B569(0) + 0 B570(0) + 0 B571(0)
   + 0 B572(0) + 0 B573(0) + 0 B574(0) + 0 B575(0) + 0 B576(0) + 0 B577(0)
   + 0 B578(0) + 0 B579(0) + 0 B580(0) + 0 B581(0) + 0 B582(0) + 0 B583(0)
   + 0 B584(0) + 0 B585(0) + 0 B586(0) + 0 B587(0) + 0 B588(0) + 0 B589(0)
   + 0 B590(0) + 0 B591(0) + 0 B592(0) + 0 B593(0) + 0 B594(0) + 0 B595(0)
   + 0 B596(0) + 0 B597(0) + 0 B598(0) + 0 B599(0) + I624(1)
Subject To
 c0: 1440 B0(8) + I600(10) - 1e+07 B625(5) >= -9.9952e+06
 c1: 1440 B0(8) + I600(10) - 1e+07 B625(5) <= 4800
 c2: 1440 B5(12) + I605(14) - 1e+07 B626(5) >= -9.99472e+06
 c3: 1440 B5(12) + I605(14) - 1e+07 B626(5) <= 5280
 c4: 1440 B10(14) + I610(16) - 1e+07 B627(5) >= -9.99424e+06
 c5: 1440 B10(14) + I610(16) - 1e+07 B627(5) <= 5760
 c6: 2880 B15(14) + I615(16) - 1e+07 B628(5) >= -9.99424e+06
 c7: 2880 B15(14) + I615(16) - 1e+07 B628(5) <= 5760
 c8: 1440 B19(16) + I619(18) - 1e+07 B629(5) >= -9.99472e+06
 c9: 1440 B19(16) + I619(18) - 1e+07 B629(5) <= 5280
 c10: B625(5) >= 0
 c11: B626(5) >= 0
 c12: B627(5) >= 0
 c13: B628(5) >= 0
 c14: B629(5) >= 0
 c15: B0(8) = 1
 c16: B1(13) = 1
 c17: B2(11) = 1
 c18: B3(11) = 1
 c19: B4(12) = 1
 c20: B5(12) = 1
 c21: B6(7) = 1
 c22: B7(11) = 1
 c23: B8(13) = 1
 c24: B9(12) = 1
 c25: B10(14) = 1
 c26: B11(11) = 1
 c27: B12(11) = 1
 c28: B13(7) = 1
 c29: B14(12) = 1
 c30: B15(14) = 1
 c31: B16(11) = 1
 c32: B17(11) = 1
 c33: B18(12) = 1
 c34: B19(16) = 1
 c35: B20(11) = 1
 c36: B21(15) = 1
 c37: B22(11) = 1
 c38: B23(12) = 1
 c39: - 1e+07 B0(8) + I600(10) <= 0
 c40: - 1e+07 B1(13) + I601(14) <= 0
 c41: - 1e+07 B2(11) + I602(12) <= 0
 c42: - 1e+07 B3(11) + I603(12) <= 0
 c43: - 1e+07 B4(12) + I604(12) <= 0
 c44: - 1e+07 B5(12) + I605(14) <= 0
 c45: - 1e+07 B6(7) + I606(8) <= 0
 c46: - 1e+07 B7(11) + I607(12) <= 0
 c47: - 1e+07 B8(13) + I608(14) <= 0
 c48: - 1e+07 B9(12) + I609(12) <= 0
 c49: - 1e+07 B10(14) + I610(16) <= 0
 c50: - 1e+07 B11(11) + I611(12) <= 0
 c51: - 1e+07 B12(11) + I612(12) <= 0
 c52: - 1e+07 B13(7) + I613(8) <= 0
 c53: - 1e+07 B14(12) + I614(12) <= 0
 c54: - 1e+07 B15(14) + I615(16) <= 0
 c55: - 1e+07 B16(11) + I616(12) <= 0
 c56: - 1e+07 B17(11) + I617(12) <= 0
 c57: - 1e+07 B18(12) + I618(12) <= 0
 c58: - 1e+07 B19(16) + I619(18) <= 0
 c59: - 1e+07 B20(11) + I620(12) <= 0
 c60: - 1e+07 B21(15) + I621(16) <= 0
 c61: - 1e+07 B22(11) + I622(12) <= 0
 c62: - 1e+07 B23(12) + I623(12) <= 0
 c63: - 1440 B1(13) + I600(10) - I601(14) >= 0
 c64: - 2880 B2(11) + I601(14) - I602(12) >= 0
 c65: - 2880 B3(11) + I602(12) - I603(12) >= 0
 c66: - 1440 B4(12) + I603(12) - I604(12) >= 0
 c67: - 1440 B6(7) + I605(14) - I606(8) >= 0
 c68: - 1440 B7(11) + I606(8) - I607(12) >= 0
 c69: - 1440 B8(13) + I607(12) - I608(14) >= 0
 c70: - 1440 B9(12) + I608(14) - I609(12) >= 0
 c71: - 1440 B11(11) + I610(16) - I611(12) >= 0
 c72: - 4320 B12(11) + I611(12) - I612(12) >= 0
 c73: - 2880 B13(7) + I612(12) - I613(8) >= 0
 c74: - 1440 B14(12) + I613(8) - I614(12) >= 0
 c75: - 2880 B16(11) + I615(16) - I616(12) >= 0
 c76: - 2880 B17(11) + I616(12) - I617(12) >= 0
 c77: - 1440 B18(12) + I617(12) - I618(12) >= 0
 c78: - 1440 B20(11) + I619(18) - I620(12) >= 0
 c79: - 1440 B21(15) + I620(12) - I621(16) >= 0
 c80: - 1440 B22(11) + I621(16) - I622(12) >= 0
 c81: - 2880 B23(12) + I622(12) - I623(12) >= 0
 c82: - 1e+07 B0(8) - 1e+07 B6(7) + 1e+07 B30(2) - I600(10) + I606(8)
   >= -1.9998421e+07
 c83: - 1e+07 B0(8) - 1e+07 B6(7) - 1e+07 B30(2) + I600(10) - I606(8)
   >= -2.9998441e+07
 c84: - 1e+07 B0(8) - 1e+07 B13(7) + 1e+07 B37(2) - I600(10) + I613(8)
   >= -1.999854e+07
 c85: - 1e+07 B0(8) - 1e+07 B13(7) - 1e+07 B37(2) + I600(10) - I613(8)
   >= -2.9997021e+07
 c86: - 1e+07 B1(13) - 1e+07 B8(13) + 1e+07 B56(2) - I601(14) + I608(14)
   >= -1.9998381e+07
 c87: - 1e+07 B1(13) - 1e+07 B8(13) - 1e+07 B56(2) + I601(14) - I608(14)
   >= -2.9998381e+07
 c88: - 1e+07 B1(13) - 1e+07 B10(14) + 1e+07 B58(2) - I601(14) + I610(16)
   >= -1.9998401e+07
 c89: - 1e+07 B1(13) - 1e+07 B10(14) - 1e+07 B58(2) + I601(14) - I610(16)
   >= -2.999848e+07
 c90: - 1e+07 B1(13) - 1e+07 B15(14) + 1e+07 B63(2) - I601(14) + I615(16)
   >= -1.9998421e+07
 c91: - 1e+07 B1(13) - 1e+07 B15(14) - 1e+07 B63(2) + I601(14) - I615(16)
   >= -2.9996922e+07
 c92: - 1e+07 B1(13) - 1e+07 B19(16) + 1e+07 B67(2) - I601(14) + I619(18)
   >= -1.9998461e+07
 c93: - 1e+07 B1(13) - 1e+07 B19(16) - 1e+07 B67(2) + I601(14) - I619(18)
   >= -2.99985e+07
 c94: - 1e+07 B1(13) - 1e+07 B21(15) + 1e+07 B69(2) - I601(14) + I621(16)
   >= -1.9998401e+07
 c95: - 1e+07 B1(13) - 1e+07 B21(15) - 1e+07 B69(2) + I601(14) - I621(16)
   >= -2.9998362e+07
 c96: - 1e+07 B2(11) - 1e+07 B7(11) + 1e+07 B79(2) - I602(12) + I607(12)
   >= -1.9996922e+07
 c97: - 1e+07 B2(11) - 1e+07 B7(11) - 1e+07 B79(2) + I602(12) - I607(12)
   >= -2.9998362e+07
 c98: - 1e+07 B2(11) - 1e+07 B11(11) + 1e+07 B83(2) - I602(12) + I611(12)
   >= -1.999704e+07
 c99: - 1e+07 B2(11) - 1e+07 B11(11) - 1e+07 B83(2) + I602(12) - I611(12)
   >= -2.999848e+07
 c100: - 1e+07 B2(11) - 1e+07 B17(11) + 1e+07 B89(2) - I602(12) + I617(12)
   >= -1.9996941e+07
 c101: - 1e+07 B2(11) - 1e+07 B17(11) - 1e+07 B89(2) + I602(12) - I617(12)
   >= -2.9997021e+07
 c102: - 1e+07 B2(11) - 1e+07 B22(11) + 1e+07 B94(2) - I602(12) + I622(12)
   >= -1.999706e+07
 c103: - 1e+07 B2(11) - 1e+07 B22(11) - 1e+07 B94(2) + I602(12) - I622(12)
   >= -2.9998441e+07
 c104: - 1e+07 B3(11) - 1e+07 B5(12) + 1e+07 B101(2) - I603(12) + I605(14)
   >= -1.999706e+07
 c105: - 1e+07 B3(11) - 1e+07 B5(12) - 1e+07 B101(2) + I603(12) - I605(14)
   >= -2.999852e+07
 c106: - 1e+07 B3(11) - 1e+07 B12(11) + 1e+07 B108(2) - I603(12) + I612(12)
   >= -1.999708e+07
 c107: - 1e+07 B3(11) - 1e+07 B12(11) - 1e+07 B108(2) + I603(12) - I612(12)
   >= -2.999564e+07
 c108: - 1e+07 B3(11) - 1e+07 B16(11) + 1e+07 B112(2) - I603(12) + I616(12)
   >= -1.9996922e+07
 c109: - 1e+07 B3(11) - 1e+07 B16(11) - 1e+07 B112(2) + I603(12) - I616(12)
   >= -2.9996922e+07
 c110: - 1e+07 B3(11) - 1e+07 B20(11) + 1e+07 B116(2) - I603(12) + I620(12)
   >= -1.9997021e+07
 c111: - 1e+07 B3(11) - 1e+07 B20(11) - 1e+07 B116(2) + I603(12) - I620(12)
   >= -2.9998381e+07
 c112: - 1e+07 B4(12) - 1e+07 B9(12) + 1e+07 B129(2) - I604(12) + I609(12)
   >= -1.9998362e+07
 c113: - 1e+07 B4(12) - 1e+07 B9(12) - 1e+07 B129(2) + I604(12) - I609(12)
   >= -2.9998421e+07
 c114: - 1e+07 B4(12) - 1e+07 B14(12) + 1e+07 B134(2) - I604(12) + I614(12)
   >= -1.99985e+07
 c115: - 1e+07 B4(12) - 1e+07 B14(12) - 1e+07 B134(2) + I604(12) - I614(12)
   >= -2.999852e+07
 c116: - 1e+07 B4(12) - 1e+07 B18(12) + 1e+07 B138(2) - I604(12) + I618(12)
   >= -1.9998461e+07
 c117: - 1e+07 B4(12) - 1e+07 B18(12) - 1e+07 B138(2) + I604(12) - I618(12)
   >= -2.9998362e+07
 c118: - 1e+07 B4(12) - 1e+07 B23(12) + 1e+07 B143(2) - I604(12) + I623(12)
   >= -1.999852e+07
 c119: - 1e+07 B4(12) - 1e+07 B23(12) - 1e+07 B143(2) + I604(12) - I623(12)
   >= -2.9996961e+07
 c120: - 1e+07 B5(12) - 1e+07 B12(11) + 1e+07 B156(2) - I605(14) + I612(12)
   >= -1.9998401e+07
 c121: - 1e+07 B5(12) - 1e+07 B12(11) - 1e+07 B156(2) + I605(14) - I612(12)
   >= -2.9995561e+07
 c122: - 1e+07 B5(12) - 1e+07 B16(11) + 1e+07 B160(2) - I605(14) + I616(12)
   >= -1.9998381e+07
 c123: - 1e+07 B5(12) - 1e+07 B16(11) - 1e+07 B160(2) + I605(14) - I616(12)
   >= -2.9996981e+07
 c124: - 1e+07 B5(12) - 1e+07 B20(11) + 1e+07 B164(2) - I605(14) + I620(12)
   >= -1.999852e+07
 c125: - 1e+07 B5(12) - 1e+07 B20(11) - 1e+07 B164(2) + I605(14) - I620(12)
   >= -2.9998461e+07
 c126: - 1e+07 B6(7) - 1e+07 B13(7) + 1e+07 B181(2) - I606(8) + I613(8)
   >= -1.9998441e+07
 c127: - 1e+07 B6(7) - 1e+07 B13(7) - 1e+07 B181(2) + I606(8) - I613(8)
   >= -2.9996941e+07
 c128: - 1e+07 B7(11) - 1e+07 B11(11) + 1e+07 B203(2) - I607(12) + I611(12)
   >= -1.9998381e+07
 c129: - 1e+07 B7(11) - 1e+07 B11(11) - 1e+07 B203(2) + I607(12) - I611(12)
   >= -2.99985e+07
 c130: - 1e+07 B7(11) - 1e+07 B17(11) + 1e+07 B209(2) - I607(12) + I617(12)
   >= -1.9998401e+07
 c131: - 1e+07 B7(11) - 1e+07 B17(11) - 1e+07 B209(2) + I607(12) - I617(12)
   >= -2.999706e+07
 c132: - 1e+07 B7(11) - 1e+07 B22(11) + 1e+07 B214(2) - I607(12) + I622(12)
   >= -1.9998401e+07
 c133: - 1e+07 B7(11) - 1e+07 B22(11) - 1e+07 B214(2) + I607(12) - I622(12)
   >= -2.999852e+07
 c134: - 1e+07 B8(13) - 1e+07 B10(14) + 1e+07 B226(2) - I608(14) + I610(16)
   >= -1.999854e+07
 c135: - 1e+07 B8(13) - 1e+07 B10(14) - 1e+07 B226(2) + I608(14) - I610(16)
   >= -2.9998441e+07
 c136: - 1e+07 B8(13) - 1e+07 B15(14) + 1e+07 B231(2) - I608(14) + I615(16)
   >= -1.9998381e+07
 c137: - 1e+07 B8(13) - 1e+07 B15(14) - 1e+07 B231(2) + I608(14) - I615(16)
   >= -2.9996941e+07
 c138: - 1e+07 B8(13) - 1e+07 B19(16) + 1e+07 B235(2) - I608(14) + I619(18)
   >= -1.999854e+07
 c139: - 1e+07 B8(13) - 1e+07 B19(16) - 1e+07 B235(2) + I608(14) - I619(18)
   >= -2.99985e+07
 c140: - 1e+07 B8(13) - 1e+07 B21(15) + 1e+07 B237(2) - I608(14) + I621(16)
   >= -1.999852e+07
 c141: - 1e+07 B8(13) - 1e+07 B21(15) - 1e+07 B237(2) + I608(14) - I621(16)
   >= -2.9998421e+07
 c142: - 1e+07 B9(12) - 1e+07 B14(12) + 1e+07 B254(2) - I609(12) + I614(12)
   >= -1.9998362e+07
 c143: - 1e+07 B9(12) - 1e+07 B14(12) - 1e+07 B254(2) + I609(12) - I614(12)
   >= -2.9998381e+07
 c144: - 1e+07 B9(12) - 1e+07 B18(12) + 1e+07 B258(2) - I609(12) + I618(12)
   >= -1.9998401e+07
 c145: - 1e+07 B9(12) - 1e+07 B18(12) - 1e+07 B258(2) + I609(12) - I618(12)
   >= -2.9998461e+07
 c146: - 1e+07 B9(12) - 1e+07 B23(12) + 1e+07 B263(2) - I609(12) + I623(12)
   >= -1.9998441e+07
 c147: - 1e+07 B9(12) - 1e+07 B23(12) - 1e+07 B263(2) + I609(12) - I623(12)
   >= -2.9996922e+07
 c148: - 1e+07 B10(14) - 1e+07 B15(14) + 1e+07 B279(2) - I610(16)
   + I615(16) >= -1.999848e+07
 c149: - 1e+07 B10(14) - 1e+07 B15(14) - 1e+07 B279(2) + I610(16)
   - I615(16) >= -2.9996922e+07
 c150: - 1e+07 B10(14) - 1e+07 B19(16) + 1e+07 B283(2) - I610(16)
   + I619(18) >= -1.9998362e+07
 c151: - 1e+07 B10(14) - 1e+07 B19(16) - 1e+07 B283(2) + I610(16)
   - I619(18) >= -2.999854e+07
 c152: - 1e+07 B10(14) - 1e+07 B21(15) + 1e+07 B285(2) - I610(16)
   + I621(16) >= -1.999848e+07
 c153: - 1e+07 B10(14) - 1e+07 B21(15) - 1e+07 B285(2) + I610(16)
   - I621(16) >= -2.9998362e+07
 c154: - 1e+07 B11(11) - 1e+07 B17(11) + 1e+07 B305(2) - I611(12)
   + I617(12) >= -1.9998401e+07
 c155: - 1e+07 B11(11) - 1e+07 B17(11) - 1e+07 B305(2) + I611(12)
   - I617(12) >= -2.999704e+07
 c156: - 1e+07 B11(11) - 1e+07 B22(11) + 1e+07 B310(2) - I611(12)
   + I622(12) >= -1.999852e+07
 c157: - 1e+07 B11(11) - 1e+07 B22(11) - 1e+07 B310(2) + I611(12)
   - I622(12) >= -2.9998441e+07
 c158: - 1e+07 B12(11) - 1e+07 B16(11) + 1e+07 B328(2) - I612(12)
   + I616(12) >= -1.9995521e+07
 c159: - 1e+07 B12(11) - 1e+07 B16(11) - 1e+07 B328(2) + I612(12)
   - I616(12) >= -2.9997001e+07
 c160: - 1e+07 B12(11) - 1e+07 B20(11) + 1e+07 B332(2) - I612(12)
   + I620(12) >= -1.999564e+07
 c161: - 1e+07 B12(11) - 1e+07 B20(11) - 1e+07 B332(2) + I612(12)
   - I620(12) >= -2.9998381e+07
 c162: - 1e+07 B14(12) - 1e+07 B18(12) + 1e+07 B378(2) - I614(12)
   + I618(12) >= -1.9998381e+07
 c163: - 1e+07 B14(12) - 1e+07 B18(12) - 1e+07 B378(2) + I614(12)
   - I618(12) >= -2.9998401e+07
 c164: - 1e+07 B14(12) - 1e+07 B23(12) + 1e+07 B383(2) - I614(12)
   + I623(12) >= -1.999848e+07
 c165: - 1e+07 B14(12) - 1e+07 B23(12) - 1e+07 B383(2) + I614(12)
   - I623(12) >= -2.9997001e+07
 c166: - 1e+07 B15(14) - 1e+07 B19(16) + 1e+07 B403(2) - I615(16)
   + I619(18) >= -1.9996961e+07
 c167: - 1e+07 B15(14) - 1e+07 B19(16) - 1e+07 B403(2) + I615(16)
   - I619(18) >= -2.999852e+07
 c168: - 1e+07 B15(14) - 1e+07 B21(15) + 1e+07 B405(2) - I615(16)
   + I621(16) >= -1.999708e+07
 c169: - 1e+07 B15(14) - 1e+07 B21(15) - 1e+07 B405(2) + I615(16)
   - I621(16) >= -2.9998461e+07
 c170: - 1e+07 B16(11) - 1e+07 B20(11) + 1e+07 B428(2) - I616(12)
   + I620(12) >= -1.999704e+07
 c171: - 1e+07 B16(11) - 1e+07 B20(11) - 1e+07 B428(2) + I616(12)
   - I620(12) >= -2.999848e+07
 c172: - 1e+07 B17(11) - 1e+07 B22(11) + 1e+07 B454(2) - I617(12)
   + I622(12) >= -1.99971e+07
 c173: - 1e+07 B17(11) - 1e+07 B22(11) - 1e+07 B454(2) + I617(12)
   - I622(12) >= -2.9998362e+07
 c174: - 1e+07 B18(12) - 1e+07 B23(12) + 1e+07 B479(2) - I618(12)
   + I623(12) >= -1.999852e+07
 c175: - 1e+07 B18(12) - 1e+07 B23(12) - 1e+07 B479(2) + I618(12)
   - I623(12) >= -2.999704e+07
 c176: - 1e+07 B19(16) - 1e+07 B21(15) + 1e+07 B501(2) - I619(18)
   + I621(16) >= -1.9998421e+07
 c177: - 1e+07 B19(16) - 1e+07 B21(15) - 1e+07 B501(2) + I619(18)
   - I621(16) >= -2.9998401e+07
 c178: - 1e+07 B19(16) - 1e+07 B21(15) + 1e+07 B547(2) + I619(18)
   - I621(16) >= -1.9998401e+07
 c179: - 1e+07 B19(16) - 1e+07 B21(15) - 1e+07 B547(2) - I619(18)
   + I621(16) >= -2.9998421e+07
 c180: I600(10) >= 0
 c181: I601(14) >= 0
 c182: I602(12) >= 0
 c183: I603(12) >= 0
 c184: - 480 B4(12) + I604(12) >= 0
 c185: I604(12) >= 0
 c186: I605(14) >= 0
 c187: I606(8) >= 0
 c188: I607(12) >= 0
 c189: I608(14) >= 0
 c190: - 480 B9(12) + I609(12) >= 0
 c191: I609(12) >= 0
 c192: I610(16) >= 0
 c193: I611(12) >= 0
 c194: I612(12) >= 0
 c195: I613(8) >= 0
 c196: - 960 B14(12) + I614(12) >= 0
 c197: I614(12) >= 0
 c198: I615(16) >= 0
 c199: I616(12) >= 0
 c200: I617(12) >= 0
 c201: - 960 B18(12) + I618(12) >= 0
 c202: I618(12) >= 0
 c203: I619(18) >= 0
 c204: I620(12) >= 0
 c205: I621(16) >= 0
 c206: I622(12) >= 0
 c207: - 480 B23(12) + I623(12) >= 0
 c208: I623(12) >= 0
 qc0: I624(1) + 3360 B625(5) + 3840 B626(5) + 4320 B627(5) + 2880 B628(5)
   + 3840 B629(5) + [ - I600(10) * B625(5) - I605(14) * B626(5)
   - I610(16) * B627(5) - I615(16) * B628(5) - I619(18) * B629(5) ] >= 0
Bounds
Binaries
 B0(8) B1(13) B2(11) B3(11) B4(12) B5(12) B6(7) B7(11) B8(13) B9(12)
 B10(14) B11(11) B12(11) B13(7) B14(12) B15(14) B16(11) B17(11) B18(12)
 B19(16) B20(11) B21(15) B22(11) B23(12) B24(0) B25(0) B26(0) B27(0) B28(0)
 B29(0) B30(2) B31(0) B32(0) B33(0) B34(0) B35(0) B36(0) B37(2) B38(0)
 B39(0) B40(0) B41(0) B42(0) B43(0) B44(0) B45(0) B46(0) B47(0) B48(0)
 B49(0) B50(0) B51(0) B52(0) B53(0) B54(0) B55(0) B56(2) B57(0) B58(2)
 B59(0) B60(0) B61(0) B62(0) B63(2) B64(0) B65(0) B66(0) B67(2) B68(0)
 B69(2) B70(0) B71(0) B72(0) B73(0) B74(0) B75(0) B76(0) B77(0) B78(0)
 B79(2) B80(0) B81(0) B82(0) B83(2) B84(0) B85(0) B86(0) B87(0) B88(0)
 B89(2) B90(0) B91(0) B92(0) B93(0) B94(2) B95(0) B96(0) B97(0) B98(0)
 B99(0) B100(0) B101(2) B102(0) B103(0) B104(0) B105(0) B106(0) B107(0)
 B108(2) B109(0) B110(0) B111(0) B112(2) B113(0) B114(0) B115(0) B116(2)
 B117(0) B118(0) B119(0) B120(0) B121(0) B122(0) B123(0) B124(0) B125(0)
 B126(0) B127(0) B128(0) B129(2) B130(0) B131(0) B132(0) B133(0) B134(2)
 B135(0) B136(0) B137(0) B138(2) B139(0) B140(0) B141(0) B142(0) B143(2)
 B144(0) B145(0) B146(0) B147(0) B148(0) B149(0) B150(0) B151(0) B152(0)
 B153(0) B154(0) B155(0) B156(2) B157(0) B158(0) B159(0) B160(2) B161(0)
 B162(0) B163(0) B164(2) B165(0) B166(0) B167(0) B168(0) B169(0) B170(0)
 B171(0) B172(0) B173(0) B174(0) B175(0) B176(0) B177(0) B178(0) B179(0)
 B180(0) B181(2) B182(0) B183(0) B184(0) B185(0) B186(0) B187(0) B188(0)
 B189(0) B190(0) B191(0) B192(0) B193(0) B194(0) B195(0) B196(0) B197(0)
 B198(0) B199(0) B200(0) B201(0) B202(0) B203(2) B204(0) B205(0) B206(0)
 B207(0) B208(0) B209(2) B210(0) B211(0) B212(0) B213(0) B214(2) B215(0)
 B216(0) B217(0) B218(0) B219(0) B220(0) B221(0) B222(0) B223(0) B224(0)
 B225(0) B226(2) B227(0) B228(0) B229(0) B230(0) B231(2) B232(0) B233(0)
 B234(0) B235(2) B236(0) B237(2) B238(0) B239(0) B240(0) B241(0) B242(0)
 B243(0) B244(0) B245(0) B246(0) B247(0) B248(0) B249(0) B250(0) B251(0)
 B252(0) B253(0) B254(2) B255(0) B256(0) B257(0) B258(2) B259(0) B260(0)
 B261(0) B262(0) B263(2) B264(0) B265(0) B266(0) B267(0) B268(0) B269(0)
 B270(0) B271(0) B272(0) B273(0) B274(0) B275(0) B276(0) B277(0) B278(0)
 B279(2) B280(0) B281(0) B282(0) B283(2) B284(0) B285(2) B286(0) B287(0)
 B288(0) B289(0) B290(0) B291(0) B292(0) B293(0) B294(0) B295(0) B296(0)
 B297(0) B298(0) B299(0) B300(0) B301(0) B302(0) B303(0) B304(0) B305(2)
 B306(0) B307(0) B308(0) B309(0) B310(2) B311(0) B312(0) B313(0) B314(0)
 B315(0) B316(0) B317(0) B318(0) B319(0) B320(0) B321(0) B322(0) B323(0)
 B324(0) B325(0) B326(0) B327(0) B328(2) B329(0) B330(0) B331(0) B332(2)
 B333(0) B334(0) B335(0) B336(0) B337(0) B338(0) B339(0) B340(0) B341(0)
 B342(0) B343(0) B344(0) B345(0) B346(0) B347(0) B348(0) B349(0) B350(0)
 B351(0) B352(0) B353(0) B354(0) B355(0) B356(0) B357(0) B358(0) B359(0)
 B360(0) B361(0) B362(0) B363(0) B364(0) B365(0) B366(0) B367(0) B368(0)
 B369(0) B370(0) B371(0) B372(0) B373(0) B374(0) B375(0) B376(0) B377(0)
 B378(2) B379(0) B380(0) B381(0) B382(0) B383(2) B384(0) B385(0) B386(0)
 B387(0) B388(0) B389(0) B390(0) B391(0) B392(0) B393(0) B394(0) B395(0)
 B396(0) B397(0) B398(0) B399(0) B400(0) B401(0) B402(0) B403(2) B404(0)
 B405(2) B406(0) B407(0) B408(0) B409(0) B410(0) B411(0) B412(0) B413(0)
 B414(0) B415(0) B416(0) B417(0) B418(0) B419(0) B420(0) B421(0) B422(0)
 B423(0) B424(0) B425(0) B426(0) B427(0) B428(2) B429(0) B430(0) B431(0)
 B432(0) B433(0) B434(0) B435(0) B436(0) B437(0) B438(0) B439(0) B440(0)
 B441(0) B442(0) B443(0) B444(0) B445(0) B446(0) B447(0) B448(0) B449(0)
 B450(0) B451(0) B452(0) B453(0) B454(2) B455(0) B456(0) B457(0) B458(0)
 B459(0) B460(0) B461(0) B462(0) B463(0) B464(0) B465(0) B466(0) B467(0)
 B468(0) B469(0) B470(0) B471(0) B472(0) B473(0) B474(0) B475(0) B476(0)
 B477(0) B478(0) B479(2) B480(0) B481(0) B482(0) B483(0) B484(0) B485(0)
 B486(0) B487(0) B488(0) B489(0) B490(0) B491(0) B492(0) B493(0) B494(0)
 B495(0) B496(0) B497(0) B498(0) B499(0) B500(0) B501(2) B502(0) B503(0)
 B504(0) B505(0) B506(0) B507(0) B508(0) B509(0) B510(0) B511(0) B512(0)
 B513(0) B514(0) B515(0) B516(0) B517(0) B518(0) B519(0) B520(0) B521(0)
 B522(0) B523(0) B524(0) B525(0) B526(0) B527(0) B528(0) B529(0) B530(0)
 B531(0) B532(0) B533(0) B534(0) B535(0) B536(0) B537(0) B538(0) B539(0)
 B540(0) B541(0) B542(0) B543(0) B544(0) B545(0) B546(0) B547(2) B548(0)
 B549(0) B550(0) B551(0) B552(0) B553(0) B554(0) B555(0) B556(0) B557(0)
 B558(0) B559(0) B560(0) B561(0) B562(0) B563(0) B564(0) B565(0) B566(0)
 B567(0) B568(0) B569(0) B570(0) B571(0) B572(0) B573(0) B574(0) B575(0)
 B576(0) B577(0) B578(0) B579(0) B580(0) B581(0) B582(0) B583(0) B584(0)
 B585(0) B586(0) B587(0) B588(0) B589(0) B590(0) B591(0) B592(0) B593(0)
 B594(0) B595(0) B596(0) B597(0) B598(0) B599(0) B625(5) B626(5) B627(5)
 B628(5) B629(5)
Generals
 I600(10) I601(14) I602(12) I603(12) I604(12) I605(14) I606(8) I607(12)
 I608(14) I609(12) I610(16) I611(12) I612(12) I613(8) I614(12) I615(16)
 I616(12) I617(12) I618(12) I619(18) I620(12) I621(16) I622(12) I623(12)
 I624(1)
End
